45900
0 0 1 1 1 0 1 1 1 1 0 0 0 0 0 1 0 0 1 0 0 1 0 0 0 1 0 0 0 0 
7 6 2 18 15 7 2 7 25 25 6 18 21 2 7 2 8 3 18 21 25 15 21 15 8 18 15 18 4 21 8 3 6 15 2 6 3 8 21 15 25 8 3 4 8 8 8 21 3 6 15 15 21 2 3 7 7 9 7 7 4 7 7 3 3 18 21 4 2 7 21 25 18 8 3 21 8 8 3 21 8 15 8 7 8 21 8 15 21 18 18 6 7 25 21 3 25 8 21 7 8 15 25 18 8 18 4 15 15 3 4 4 25 7 18 4 7 7 3 8 8 6 25 4 6 21 2 25 4 6 6 15 25 3 2 3 3 8 7 9 25 2 7 6 7 21 2 15 18 25 25 21 8 18 9 21 15 15 8 21 3 6 3 15 3 6 3 4 3 21 21 3 6 3 3 15 18 8 4 2 15 15 2 2 7 3 4 2 2 2 2 21 6 6 7 6 7 15 21 18 
